proyfinal/src/viki/013/experimentInOfficeAgust.take6.output/d25d1635-4901-4c3e-a67d-6ba469e492e0.als.out
Reading from standard input... Use '--help' for help.
============================[ Problem Statistics ]=============================
|                                                                             |
|  Number of variables:         87638                                         |
|  Number of clauses:          161767                                         |
|  Parse time:                   0.03 s                                       |
|                                                                             |
============================[ Search Statistics ]==============================
| Conflicts |          ORIGINAL         |          LEARNT          | Progress |
|           |    Vars  Clauses Literals |    Limit  Clauses Lit/Cl |          |
===============================================================================
|       100 |   63999   110926   277169 |    40672      100     32 | 26.973 % |
|       250 |   63999   110926   277169 |    44740      250     26 | 26.973 % |
|       475 |   63999   110926   277169 |    49214      475     37 | 26.973 % |
|       812 |   55158    84378   211797 |    54135      799     42 | 37.062 % |
|      1318 |   55028    83917   210705 |    59549     1288     46 | 37.210 % |
|      2077 |   54834    83267   209178 |    65504     1994     61 | 37.431 % |
|      3216 |   54682    82556   207418 |    72054     3060     64 | 37.605 % |
|      4924 |   54451    81733   205409 |    79259     4744     70 | 37.868 % |
|      7486 |   54284    81021   203725 |    87185     7251     67 | 38.059 % |
|     11330 |   54157    80567   202607 |    95904    11025     71 | 38.204 % |
|     17096 |   53901    79435   199849 |   105494    16694     71 | 38.496 % |
===============================================================================
restarts              : 77
conflicts             : 21416          (7859 /sec)
decisions             : 76400          (0.00 % random) (28035 /sec)
propagations          : 28695202       (10529882 /sec)
conflict literals     : 1500787        (45.07 % deleted)
Memory used           : 48.07 MB
CPU time              : 2.72512 s

INDETERMINATE
